
Gurobi 10.0.3 (mac64[arm]) logging started Mon Nov  6 12:39:22 2023

Set parameter LogFile to value "offline_optimal.log"
Gurobi Optimizer version 10.0.3 build v10.0.3rc0 (mac64[arm])

CPU model: Apple M1
Thread count: 8 physical cores, 8 logical processors, using up to 8 threads

Optimize a model with 193757 rows, 733400 columns and 1653123 nonzeros
Model fingerprint: 0x345a372b
Variable types: 0 continuous, 733400 integer (733400 binary)
Coefficient statistics:
  Matrix range     [1e+00, 1e+00]
  Objective range  [5e-324, 1e+00]
  Bounds range     [1e+00, 1e+00]
  RHS range        [1e+00, 1e+02]
Found heuristic solution: objective 0.9074117
Presolve removed 193757 rows and 733400 columns
Presolve time: 0.86s
Presolve: All rows and columns removed

Explored 0 nodes (0 simplex iterations) in 0.96 seconds (2.14 work units)
Thread count was 1 (of 8 available processors)

Solution count 2: 9.60864e-10 0.907412 

Optimal solution found (tolerance 1.00e-04)
Best objective 9.608642081573e-10, best bound 9.608642081573e-10, gap 0.0000%
